7,1,9,2,8,2,2,3,6,2,6,3,2,4,7,4,6,5;9,1,3,1,4,2,10,3,3,3,9,4,7,2,3,4,8,4,8,5,10,5;4,1,2,1,2,2,3,2,4,3,5,3,10,4,4,4,6,4,1,5,7,5;6,1,1,1,1,2,5,1,5,2,1,4,7,3,9,5,5,5,4,5;8,1,10,1,10,2,9,3,1,3,8,3,5,4,3,5,2,5;
